unsat
(:max-memory         18.62
 :memory             18.52
 :nlsat-arith-var    3
 :nlsat-atoms        11
 :nlsat-bool-var     1
 :nlsat-clauses      11
 :nlsat-conflicts    2
 :nlsat-propagations 7
 :nlsat-stages       2
 :num-allocs         83754
 :rlimit-count       7001
 :time               0.00
 :total-time         0.02)
